(set-info :source |printed by MathSAT|)
(declare-fun |!{$(in_main#0)<N>}| () Int)
(declare-fun |!{$(in_main#0)<N>}.next| () Int)
(declare-fun |!{$(in_main#0)<i>}| () Int)
(declare-fun |!{$(in_main#0)<i>}.next| () Int)
(declare-fun |!{$(in_main#0)<j>}| () Int)
(declare-fun |!{$(in_main#0)<j>}.next| () Int)
(declare-fun |!{$(in_main#0)<min>}| () Int)
(declare-fun |!{$(in_main#0)<min>}.next| () Int)
(declare-fun |!{$(in_main#0)<x>}| () Int)
(declare-fun |!{$(in_main#0)<x>}.next| () Int)
(declare-fun |!{$(in_main#0)<a.1>}| () (Array Int Int))
(declare-fun |!{$(in_main#0)<a.1>}.next| () (Array Int Int))
(declare-fun |!{$(in_main#0)<$(in___VERIFIER_nondet_int#0)<h#<__VERIFIER_nondet_int.return>>>}| () Int)
(declare-fun |!{$(in_main#0)<$(in___VERIFIER_nondet_int#1)<h#<__VERIFIER_nondet_int.return>>>}| () Int)
(declare-fun !pc () Int)
(declare-fun !pc.next () Int)
(declare-fun |%{$(in_main#0)<i>}#1| () Int)
(declare-fun |%{$(in_main#0)<x>}#1| () Int)
(declare-fun |%{$(in_main#0)<a.1>}#1| () (Array Int Int))
(declare-fun |%{$(in_main#0)<min>}#2| () Int)
(define-fun .def_32 () Int (! !pc :next !pc.next))
(define-fun .def_35 () Bool (! (= .def_32 2) :init true))
(define-fun .def_181 () Bool (= .def_32 26))
(define-fun .def_154 () Bool (= !pc.next 46))
(define-fun .def_184 () Bool (and .def_154 .def_181))
(define-fun .def_174 () Bool (= |!{$(in_main#0)<i>}.next| 0))
(define-fun .def_8 () Int (! |!{$(in_main#0)<N>}| :next |!{$(in_main#0)<N>}.next|))
(define-fun .def_74 () Bool (= .def_8 |!{$(in_main#0)<N>}.next|))
(define-fun .def_175 () Bool (and .def_74 .def_174))
(define-fun .def_12 () Int (! |!{$(in_main#0)<j>}| :next |!{$(in_main#0)<j>}.next|))
(define-fun .def_78 () Bool (= .def_12 |!{$(in_main#0)<j>}.next|))
(define-fun .def_176 () Bool (and .def_78 .def_175))
(define-fun .def_14 () Int (! |!{$(in_main#0)<min>}| :next |!{$(in_main#0)<min>}.next|))
(define-fun .def_80 () Bool (= .def_14 |!{$(in_main#0)<min>}.next|))
(define-fun .def_177 () Bool (and .def_80 .def_176))
(define-fun .def_16 () Int (! |!{$(in_main#0)<x>}| :next |!{$(in_main#0)<x>}.next|))
(define-fun .def_82 () Bool (= .def_16 |!{$(in_main#0)<x>}.next|))
(define-fun .def_178 () Bool (and .def_82 .def_177))
(define-fun .def_18 () (Array Int Int) (! |!{$(in_main#0)<a.1>}| :next |!{$(in_main#0)<a.1>}.next|))
(define-fun .def_84 () Bool (= .def_18 |!{$(in_main#0)<a.1>}.next|))
(define-fun .def_179 () Bool (and .def_84 .def_178))
(define-fun .def_161 () Bool (<= .def_8 .def_12))
(define-fun .def_180 () Bool (and .def_161 .def_179))
(define-fun .def_185 () Bool (and .def_180 .def_184))
(define-fun .def_60 () Bool (= !pc.next 26))
(define-fun .def_182 () Bool (and .def_60 .def_181))
(define-fun .def_163 () (Array Int Int) (store .def_18 .def_12 |!{$(in_main#0)<$(in___VERIFIER_nondet_int#1)<h#<__VERIFIER_nondet_int.return>>>}|))
(define-fun .def_171 () Bool (= |!{$(in_main#0)<a.1>}.next| .def_163))
(define-fun .def_165 () Int (* (- 1) |!{$(in_main#0)<j>}.next|))
(define-fun .def_166 () Int (+ .def_12 .def_165))
(define-fun .def_167 () Bool (= .def_166 (- 1)))
(define-fun .def_10 () Int (! |!{$(in_main#0)<i>}| :next |!{$(in_main#0)<i>}.next|))
(define-fun .def_76 () Bool (= .def_10 |!{$(in_main#0)<i>}.next|))
(define-fun .def_87 () Bool (and .def_74 .def_76))
(define-fun .def_168 () Bool (and .def_87 .def_167))
(define-fun .def_169 () Bool (and .def_80 .def_168))
(define-fun .def_170 () Bool (and .def_82 .def_169))
(define-fun .def_172 () Bool (and .def_170 .def_171))
(define-fun .def_162 () Bool (not .def_161))
(define-fun .def_173 () Bool (and .def_162 .def_172))
(define-fun .def_183 () Bool (and .def_173 .def_182))
(define-fun .def_186 () Bool (or .def_183 .def_185))
(define-fun .def_153 () Bool (= .def_32 46))
(define-fun .def_110 () Bool (= !pc.next 68))
(define-fun .def_157 () Bool (and .def_110 .def_153))
(define-fun .def_148 () Bool (= |!{$(in_main#0)<x>}.next| 0))
(define-fun .def_88 () Bool (and .def_78 .def_87))
(define-fun .def_89 () Bool (and .def_80 .def_88))
(define-fun .def_149 () Bool (and .def_89 .def_148))
(define-fun .def_150 () Bool (and .def_84 .def_149))
(define-fun .def_121 () Bool (<= .def_8 .def_10))
(define-fun .def_151 () Bool (and .def_121 .def_150))
(define-fun .def_158 () Bool (and .def_151 .def_157))
(define-fun .def_155 () Bool (and .def_153 .def_154))
(define-fun .def_142 () Bool (= |!{$(in_main#0)<min>}.next| |%{$(in_main#0)<min>}#2|))
(define-fun .def_137 () Int (* (- 1) |!{$(in_main#0)<i>}.next|))
(define-fun .def_138 () Int (+ .def_10 .def_137))
(define-fun .def_139 () Bool (= .def_138 (- 1)))
(define-fun .def_140 () Bool (and .def_74 .def_139))
(define-fun .def_141 () Bool (and .def_78 .def_140))
(define-fun .def_143 () Bool (and .def_141 .def_142))
(define-fun .def_144 () Bool (and .def_82 .def_143))
(define-fun .def_145 () Bool (and .def_84 .def_144))
(define-fun .def_123 () Int (select .def_18 .def_10))
(define-fun .def_131 () Bool (= .def_123 |%{$(in_main#0)<min>}#2|))
(define-fun .def_124 () Bool (<= .def_14 .def_123))
(define-fun .def_125 () Bool (not .def_124))
(define-fun .def_133 () Bool (and .def_125 .def_131))
(define-fun .def_130 () Bool (= .def_14 |%{$(in_main#0)<min>}#2|))
(define-fun .def_132 () Bool (and .def_124 .def_130))
(define-fun .def_134 () Bool (or .def_132 .def_133))
(define-fun .def_146 () Bool (and .def_134 .def_145))
(define-fun .def_122 () Bool (not .def_121))
(define-fun .def_147 () Bool (and .def_122 .def_146))
(define-fun .def_156 () Bool (and .def_147 .def_155))
(define-fun .def_159 () Bool (or .def_156 .def_158))
(define-fun .def_114 () Bool (= !pc.next 0))
(define-fun .def_105 () Bool (= .def_32 68))
(define-fun .def_115 () Bool (and .def_105 .def_114))
(define-fun .def_63 () Bool (<= .def_8 .def_16))
(define-fun .def_98 () Bool (and .def_63 .def_74))
(define-fun .def_99 () Bool (and .def_76 .def_98))
(define-fun .def_100 () Bool (and .def_78 .def_99))
(define-fun .def_101 () Bool (and .def_80 .def_100))
(define-fun .def_102 () Bool (and .def_82 .def_101))
(define-fun .def_103 () Bool (and .def_84 .def_102))
(define-fun .def_116 () Bool (and .def_103 .def_115))
(define-fun .def_111 () Bool (and .def_105 .def_110))
(define-fun .def_91 () Int (* (- 1) |!{$(in_main#0)<x>}.next|))
(define-fun .def_92 () Int (+ .def_16 .def_91))
(define-fun .def_93 () Bool (= .def_92 (- 1)))
(define-fun .def_94 () Bool (and .def_89 .def_93))
(define-fun .def_95 () Bool (and .def_84 .def_94))
(define-fun .def_65 () Int (select .def_18 .def_16))
(define-fun .def_66 () Bool (<= .def_65 .def_14))
(define-fun .def_67 () Bool (not .def_66))
(define-fun .def_68 () Int (ite .def_67 1 0))
(define-fun .def_69 () Bool (= .def_68 0))
(define-fun .def_70 () Bool (not .def_69))
(define-fun .def_96 () Bool (and .def_70 .def_95))
(define-fun .def_64 () Bool (not .def_63))
(define-fun .def_97 () Bool (and .def_64 .def_96))
(define-fun .def_112 () Bool (and .def_97 .def_111))
(define-fun .def_107 () Bool (= !pc.next 88))
(define-fun .def_108 () Bool (and .def_105 .def_107))
(define-fun .def_75 () Bool (and .def_69 .def_74))
(define-fun .def_77 () Bool (and .def_75 .def_76))
(define-fun .def_79 () Bool (and .def_77 .def_78))
(define-fun .def_81 () Bool (and .def_79 .def_80))
(define-fun .def_83 () Bool (and .def_81 .def_82))
(define-fun .def_85 () Bool (and .def_83 .def_84))
(define-fun .def_86 () Bool (and .def_64 .def_85))
(define-fun .def_109 () Bool (and .def_86 .def_108))
(define-fun .def_113 () Bool (or .def_109 .def_112))
(define-fun .def_117 () Bool (or .def_113 .def_116))
(define-fun .def_61 () Bool (and .def_35 .def_60))
(define-fun .def_57 () Bool (= |!{$(in_main#0)<a.1>}.next| |%{$(in_main#0)<a.1>}#1|))
(define-fun .def_55 () Bool (= |!{$(in_main#0)<x>}.next| |%{$(in_main#0)<x>}#1|))
(define-fun .def_53 () Bool (= |!{$(in_main#0)<min>}.next| 0))
(define-fun .def_51 () Bool (= |!{$(in_main#0)<j>}.next| 0))
(define-fun .def_49 () Bool (= |!{$(in_main#0)<i>}.next| |%{$(in_main#0)<i>}#1|))
(define-fun .def_48 () Bool (= |!{$(in_main#0)<N>}.next| |!{$(in_main#0)<$(in___VERIFIER_nondet_int#0)<h#<__VERIFIER_nondet_int.return>>>}|))
(define-fun .def_50 () Bool (and .def_48 .def_49))
(define-fun .def_52 () Bool (and .def_50 .def_51))
(define-fun .def_54 () Bool (and .def_52 .def_53))
(define-fun .def_56 () Bool (and .def_54 .def_55))
(define-fun .def_58 () Bool (and .def_56 .def_57))
(define-fun .def_62 () Bool (and .def_58 .def_61))
(define-fun .def_118 () Bool (or .def_62 .def_117))
(define-fun .def_160 () Bool (or .def_118 .def_159))
(define-fun .def_187 () Bool (! (or .def_160 .def_186) :trans true))
(define-fun .def_119 () Bool (= .def_32 88))
(define-fun .def_188 () Bool (! (not .def_119) :invar-property 0 :invar-property-name ||))
(assert true)
